% seed = 0

mint = 30;
% maxt = 87;

nActs = 32;
dur = [0,4,2,5,4,2,3,3,1,2,3,4,2,3,2,3,3,3,4,3,7,3,5,1,2,1,2,3,4,2,1,0];

nSkills = 9;
sreq = [| 0,0,0,0,0,0,0,0,0,
	| 0,0,1,0,0,0,0,0,0,
	| 0,0,0,0,0,1,0,0,1,
	| 0,1,0,0,1,0,0,0,0,
	| 0,1,0,0,0,0,0,0,0,
	| 0,1,0,0,0,0,0,0,0,
	| 0,0,1,0,0,0,0,0,0,
	| 0,0,0,0,0,0,0,0,1,
	| 0,0,0,0,0,0,0,0,1,
	| 0,1,0,0,0,0,0,0,0,
	| 0,0,0,1,0,0,0,0,0,
	| 0,0,1,0,0,0,0,0,0,
	| 0,0,0,0,0,0,0,0,1,
	| 1,0,0,0,0,0,0,1,0,
	| 0,0,1,0,0,0,0,0,0,
	| 1,0,0,0,0,0,0,0,0,
	| 0,0,0,0,0,0,1,0,0,
	| 0,0,0,0,0,0,0,0,1,
	| 0,0,0,1,0,0,0,0,0,
	| 0,0,0,0,0,0,0,0,1,
	| 0,0,0,0,0,0,0,0,1,
	| 0,0,0,0,0,0,1,0,0,
	| 0,0,0,0,0,0,0,0,1,
	| 0,0,0,0,0,0,0,0,1,
	| 0,1,0,0,0,0,0,0,0,
	| 0,0,1,0,0,0,0,0,0,
	| 0,0,1,0,0,0,0,0,0,
	| 0,0,0,1,0,0,0,0,0,
	| 0,1,0,0,0,0,0,0,0,
	| 0,0,0,0,0,0,0,0,1,
	| 1,0,0,0,0,0,0,0,0,
	| 0,0,0,0,0,0,0,0,0, |];

% SumOfsreq = 33;

nResources = 5;
mastery = [| false,false,false,false,false,false,false,false,true,
	| true,true,true,false,false,false,false,false,false,
	| false,false,true,true,true,true,false,false,true,
	| false,true,true,false,false,false,true,true,true,
	| false,false,false,false,false,true,false,false,false, |];

nPrecs = 68;
pred = [1,1,1,2,2,2,3,3,3,4,4,4,5,5,6,6,6,7,7,7,8,8,8,9,9,9,10,10,10,11,11,12,13,13,14,14,14,15,15,15,16,16,16,17,17,17,18,18,19,19,20,20,21,21,22,22,22,23,23,24,25,26,27,28,28,29,30,31];
succ = [2,3,4,6,7,16,11,29,15,10,5,8,28,22,9,29,15,17,10,12,11,21,22,25,11,12,18,19,20,18,24,13,20,14,19,21,24,17,18,22,17,29,24,25,19,20,27,23,28,23,21,23,26,27,25,26,31,26,31,27,30,30,28,30,31,32,32,32];

nUnrels = 177;
unpred = [2,2,2,2,3,3,3,3,3,3,3,3,3,3,3,4,4,4,4,4,4,4,4,4,4,5,5,5,5,5,5,5,5,5,5,5,5,5,5,5,5,5,5,5,5,6,6,6,6,7,7,7,7,7,7,7,8,8,8,8,8,8,8,8,8,8,8,9,9,9,9,9,9,10,10,10,10,10,10,10,10,10,10,10,11,11,11,11,11,11,11,11,11,11,11,11,12,12,12,12,12,12,12,13,13,13,13,13,13,13,14,14,14,14,14,14,14,14,15,15,15,16,16,17,17,17,17,18,18,18,18,18,18,18,19,19,19,19,19,19,19,20,20,20,20,21,21,21,21,21,22,22,22,22,22,23,23,23,23,23,24,24,24,25,25,25,25,25,26,26,26,26,27,28,29,29,30];
unsucc = [3,4,5,8,4,5,6,7,8,9,10,12,13,14,16,6,7,9,12,13,14,15,16,17,29,6,7,8,9,10,11,12,13,14,15,16,17,18,19,20,21,23,24,27,29,7,8,10,16,8,9,11,15,16,22,29,9,10,12,13,14,15,16,17,19,20,29,10,15,16,17,22,29,11,12,13,14,15,16,17,22,24,25,29,12,13,14,15,16,17,19,20,21,22,25,29,15,16,17,18,22,25,29,15,16,17,18,22,25,29,15,16,17,18,20,22,25,29,16,24,29,18,22,18,22,24,29,19,20,21,22,24,25,29,20,21,22,24,25,27,29,22,24,25,29,22,23,24,25,29,23,24,27,28,29,24,25,27,28,29,25,26,29,26,27,28,29,31,27,28,29,31,29,29,30,31,31];

USEFUL_RES = [{},
	{2,3,4},
	{1,3,4,5},
	{2,3,4},
	{2,4},
	{2,4},
	{2,3,4},
	{1,3,4},
	{1,3,4},
	{2,4},
	{3},
	{2,3,4},
	{1,3,4},
	{2,4},
	{2,3,4},
	{2},
	{4},
	{1,3,4},
	{3},
	{1,3,4},
	{1,3,4},
	{4},
	{1,3,4},
	{1,3,4},
	{2,4},
	{2,3,4},
	{2,3,4},
	{3},
	{2,4},
	{1,3,4},
	{2},
	{}];

POTENTIAL_ACT = [{3,8,9,13,18,20,21,23,24,30},
	{2,4,5,6,7,10,12,14,15,16,25,26,27,29,31},
	{2,3,4,7,8,9,11,12,13,15,18,19,20,21,23,24,26,27,28,30},
	{2,3,4,5,6,7,8,9,10,12,13,14,15,17,18,20,21,22,23,24,25,26,27,29,30},
	{3}];
